c description: Tseitin formula on , with even charge
c generator: CNFgen (0.9.0)
c copyright: (C) 2012-2020 Massimo Lauria <massimo.lauria@uniroma1.it>
c url: https://massimolauria.net/cnfgen
c
p cnf 40 280
1 2 3 4 -5 0
1 2 3 -4 5 0
1 2 -3 4 5 0
1 2 -3 -4 -5 0
1 -2 3 4 5 0
1 -2 3 -4 -5 0
1 -2 -3 4 -5 0
1 -2 -3 -4 5 0
-1 2 3 4 5 0
-1 2 3 -4 -5 0
-1 2 -3 4 -5 0
-1 2 -3 -4 5 0
-1 -2 3 4 -5 0
-1 -2 3 -4 5 0
-1 -2 -3 4 5 0
-1 -2 -3 -4 -5 0
-6 0
1 7 8 9 10 -11 0
1 7 8 9 -10 11 0
1 7 8 -9 10 11 0
1 7 8 -9 -10 -11 0
1 7 -8 9 10 11 0
1 7 -8 9 -10 -11 0
1 7 -8 -9 10 -11 0
1 7 -8 -9 -10 11 0
1 -7 8 9 10 11 0
1 -7 8 9 -10 -11 0
1 -7 8 -9 10 -11 0
1 -7 8 -9 -10 11 0
1 -7 -8 9 10 -11 0
1 -7 -8 9 -10 11 0
1 -7 -8 -9 10 11 0
1 -7 -8 -9 -10 -11 0
-1 7 8 9 10 11 0
-1 7 8 9 -10 -11 0
-1 7 8 -9 10 -11 0
-1 7 8 -9 -10 11 0
-1 7 -8 9 10 -11 0
-1 7 -8 9 -10 11 0
-1 7 -8 -9 10 11 0
-1 7 -8 -9 -10 -11 0
-1 -7 8 9 10 -11 0
-1 -7 8 9 -10 11 0
-1 -7 8 -9 10 11 0
-1 -7 8 -9 -10 -11 0
-1 -7 -8 9 10 11 0
-1 -7 -8 9 -10 -11 0
-1 -7 -8 -9 10 -11 0
-1 -7 -8 -9 -10 11 0
12 13 14 -15 0
12 13 -14 15 0
12 -13 14 15 0
12 -13 -14 -15 0
-12 13 14 15 0
-12 13 -14 -15 0
-12 -13 14 -15 0
-12 -13 -14 15 0
7 16 17 18 -19 0
7 16 17 -18 19 0
7 16 -17 18 19 0
7 16 -17 -18 -19 0
7 -16 17 18 19 0
7 -16 17 -18 -19 0
7 -16 -17 18 -19 0
7 -16 -17 -18 19 0
-7 16 17 18 19 0
-7 16 17 -18 -19 0
-7 16 -17 18 -19 0
-7 16 -17 -18 19 0
-7 -16 17 18 -19 0
-7 -16 17 -18 19 0
-7 -16 -17 18 19 0
-7 -16 -17 -18 -19 0
2 20 -21 0
2 -20 21 0
-2 20 21 0
-2 -20 -21 0
20 22 23 24 25 -26 0
20 22 23 24 -25 26 0
20 22 23 -24 25 26 0
20 22 23 -24 -25 -26 0
20 22 -23 24 25 26 0
20 22 -23 24 -25 -26 0
20 22 -23 -24 25 -26 0
20 22 -23 -24 -25 26 0
20 -22 23 24 25 26 0
20 -22 23 24 -25 -26 0
20 -22 23 -24 25 -26 0
20 -22 23 -24 -25 26 0
20 -22 -23 24 25 -26 0
20 -22 -23 24 -25 26 0
20 -22 -23 -24 25 26 0
20 -22 -23 -24 -25 -26 0
-20 22 23 24 25 26 0
-20 22 23 24 -25 -26 0
-20 22 23 -24 25 -26 0
-20 22 23 -24 -25 26 0
-20 22 -23 24 25 -26 0
-20 22 -23 24 -25 26 0
-20 22 -23 -24 25 26 0
-20 22 -23 -24 -25 -26 0
-20 -22 23 24 25 -26 0
-20 -22 23 24 -25 26 0
-20 -22 23 -24 25 26 0
-20 -22 23 -24 -25 -26 0
-20 -22 -23 24 25 26 0
-20 -22 -23 24 -25 -26 0
-20 -22 -23 -24 25 -26 0
-20 -22 -23 -24 -25 26 0
-16 0
8 17 22 -27 0
8 17 -22 27 0
8 -17 22 27 0
8 -17 -22 -27 0
-8 17 22 27 0
-8 17 -22 -27 0
-8 -17 22 -27 0
-8 -17 -22 27 0
18 23 28 29 30 -31 0
18 23 28 29 -30 31 0
18 23 28 -29 30 31 0
18 23 28 -29 -30 -31 0
18 23 -28 29 30 31 0
18 23 -28 29 -30 -31 0
18 23 -28 -29 30 -31 0
18 23 -28 -29 -30 31 0
18 -23 28 29 30 31 0
18 -23 28 29 -30 -31 0
18 -23 28 -29 30 -31 0
18 -23 28 -29 -30 31 0
18 -23 -28 29 30 -31 0
18 -23 -28 29 -30 31 0
18 -23 -28 -29 30 31 0
18 -23 -28 -29 -30 -31 0
-18 23 28 29 30 31 0
-18 23 28 29 -30 -31 0
-18 23 28 -29 30 -31 0
-18 23 28 -29 -30 31 0
-18 23 -28 29 30 -31 0
-18 23 -28 29 -30 31 0
-18 23 -28 -29 30 31 0
-18 23 -28 -29 -30 -31 0
-18 -23 28 29 30 -31 0
-18 -23 28 29 -30 31 0
-18 -23 28 -29 30 31 0
-18 -23 28 -29 -30 -31 0
-18 -23 -28 29 30 31 0
-18 -23 -28 29 -30 -31 0
-18 -23 -28 -29 30 -31 0
-18 -23 -28 -29 -30 31 0
32 33 -34 0
32 -33 34 0
-32 33 34 0
-32 -33 -34 0
3 9 24 32 -35 0
3 9 24 -32 35 0
3 9 -24 32 35 0
3 9 -24 -32 -35 0
3 -9 24 32 35 0
3 -9 24 -32 -35 0
3 -9 -24 32 -35 0
3 -9 -24 -32 35 0
-3 9 24 32 35 0
-3 9 24 -32 -35 0
-3 9 -24 32 -35 0
-3 9 -24 -32 35 0
-3 -9 24 32 -35 0
-3 -9 24 -32 35 0
-3 -9 -24 32 35 0
-3 -9 -24 -32 -35 0
10 21 -36 0
10 -21 36 0
-10 21 36 0
-10 -21 -36 0
28 33 -37 0
28 -33 37 0
-28 33 37 0
-28 -33 -37 0
12 -25 0
-12 25 0
4 13 34 -38 0
4 13 -34 38 0
4 -13 34 38 0
4 -13 -34 -38 0
-4 13 34 38 0
-4 13 -34 -38 0
-4 -13 34 -38 0
-4 -13 -34 38 0
11 14 29 -39 0
11 14 -29 39 0
11 -14 29 39 0
11 -14 -29 -39 0
-11 14 29 39 0
-11 14 -29 -39 0
-11 -14 29 -39 0
-11 -14 -29 39 0
19 30 -40 0
19 -30 40 0
-19 30 40 0
-19 -30 -40 0
15 26 27 31 35 39 -40 0
15 26 27 31 35 -39 40 0
15 26 27 31 -35 39 40 0
15 26 27 31 -35 -39 -40 0
15 26 27 -31 35 39 40 0
15 26 27 -31 35 -39 -40 0
15 26 27 -31 -35 39 -40 0
15 26 27 -31 -35 -39 40 0
15 26 -27 31 35 39 40 0
15 26 -27 31 35 -39 -40 0
15 26 -27 31 -35 39 -40 0
15 26 -27 31 -35 -39 40 0
15 26 -27 -31 35 39 -40 0
15 26 -27 -31 35 -39 40 0
15 26 -27 -31 -35 39 40 0
15 26 -27 -31 -35 -39 -40 0
15 -26 27 31 35 39 40 0
15 -26 27 31 35 -39 -40 0
15 -26 27 31 -35 39 -40 0
15 -26 27 31 -35 -39 40 0
15 -26 27 -31 35 39 -40 0
15 -26 27 -31 35 -39 40 0
15 -26 27 -31 -35 39 40 0
15 -26 27 -31 -35 -39 -40 0
15 -26 -27 31 35 39 -40 0
15 -26 -27 31 35 -39 40 0
15 -26 -27 31 -35 39 40 0
15 -26 -27 31 -35 -39 -40 0
15 -26 -27 -31 35 39 40 0
15 -26 -27 -31 35 -39 -40 0
15 -26 -27 -31 -35 39 -40 0
15 -26 -27 -31 -35 -39 40 0
-15 26 27 31 35 39 40 0
-15 26 27 31 35 -39 -40 0
-15 26 27 31 -35 39 -40 0
-15 26 27 31 -35 -39 40 0
-15 26 27 -31 35 39 -40 0
-15 26 27 -31 35 -39 40 0
-15 26 27 -31 -35 39 40 0
-15 26 27 -31 -35 -39 -40 0
-15 26 -27 31 35 39 -40 0
-15 26 -27 31 35 -39 40 0
-15 26 -27 31 -35 39 40 0
-15 26 -27 31 -35 -39 -40 0
-15 26 -27 -31 35 39 40 0
-15 26 -27 -31 35 -39 -40 0
-15 26 -27 -31 -35 39 -40 0
-15 26 -27 -31 -35 -39 40 0
-15 -26 27 31 35 39 -40 0
-15 -26 27 31 35 -39 40 0
-15 -26 27 31 -35 39 40 0
-15 -26 27 31 -35 -39 -40 0
-15 -26 27 -31 35 39 40 0
-15 -26 27 -31 35 -39 -40 0
-15 -26 27 -31 -35 39 -40 0
-15 -26 27 -31 -35 -39 40 0
-15 -26 -27 31 35 39 40 0
-15 -26 -27 31 35 -39 -40 0
-15 -26 -27 31 -35 39 -40 0
-15 -26 -27 31 -35 -39 40 0
-15 -26 -27 -31 35 39 -40 0
-15 -26 -27 -31 35 -39 40 0
-15 -26 -27 -31 -35 39 40 0
-15 -26 -27 -31 -35 -39 -40 0
5 6 36 37 -38 0
5 6 36 -37 38 0
5 6 -36 37 38 0
5 6 -36 -37 -38 0
5 -6 36 37 38 0
5 -6 36 -37 -38 0
5 -6 -36 37 -38 0
5 -6 -36 -37 38 0
-5 6 36 37 38 0
-5 6 36 -37 -38 0
-5 6 -36 37 -38 0
-5 6 -36 -37 38 0
-5 -6 36 37 -38 0
-5 -6 36 -37 38 0
-5 -6 -36 37 38 0
-5 -6 -36 -37 -38 0